NAME: /home/jevata/NetBeansProjects/CCVRP/kelly05.ccvrp
TYPE: CVRP
COMMENT: ; big-m modified Wed Nov  7 11:13:47 2012
DIMENSION: 6
CAPACITY: 900
EDGE_WEIGHT_TYPE: EXPLICIT
EDGE_WEIGHT_FORMAT: FULL_MATRIX
EDGE_WEIGHT_SECTION
        0.00    121593.27    193547.38    234186.66     72345.87     87073.16 
   121593.27         0.00    180503.34    135501.01    193695.73     39957.55 
   193547.38    180503.34         0.00    306718.33    227376.24    158964.59 
   234186.66    135501.01    306718.33         0.00    303221.52    172832.05 
    72345.87    193695.73    227376.24    303221.52         0.00    157650.18 
    87073.16     39957.55    158964.59    172832.05    157650.18         0.00 
DEMAND_SECTION
1 900
2 900
3 890
4 900
5 410
6 0
DEPOT_SECTION
1
-1
EOF
